* #variable= 360 #constraint= 867 
-1 x25 +1 x1 >= 0 ;
-1 x25 +1 x13 >= 0 ;
+1 x25 -1 x1 -1 x13 >= -1 ;
+1 x25 +2 x37 +4 x49 +8 x61 +16 x73 +32 x85 +64 x97 +128 x109 +256 x121 +512 x133 +1024 x145 +2048 x157 +2 x26 +4 x38 +8 x50 +16 x62 +32 x74 +64 x86 +128 x98 +256 x110 +512 x122 +1024 x134 +2048 x146 +4096 x158 +4 x27 +8 x39 +16 x51 +32 x63 +64 x75 +128 x87 +256 x99 +512 x111 +1024 x123 +2048 x135 +4096 x147 +8192 x159 +8 x28 +16 x40 +32 x52 +64 x64 +128 x76 +256 x88 +512 x100 +1024 x112 +2048 x124 +4096 x136 +8192 x148 +16384 x160 +16 x29 +32 x41 +64 x53 +128 x65 +256 x77 +512 x89 +1024 x101 +2048 x113 +4096 x125 +8192 x137 +16384 x149 +32768 x161 +32 x30 +64 x42 +128 x54 +256 x66 +512 x78 +1024 x90 +2048 x102 +4096 x114 +8192 x126 +16384 x138 +32768 x150 +65536 x162 +64 x31 +128 x43 +256 x55 +512 x67 +1024 x79 +2048 x91 +4096 x103 +8192 x115 +16384 x127 +32768 x139 +65536 x151 +131072 x163 +128 x32 +256 x44 +512 x56 +1024 x68 +2048 x80 +4096 x92 +8192 x104 +16384 x116 +32768 x128 +65536 x140 +131072 x152 +262144 x164 +256 x33 +512 x45 +1024 x57 +2048 x69 +4096 x81 +8192 x93 +16384 x105 +32768 x117 +65536 x129 +131072 x141 +262144 x153 +524288 x165 +512 x34 +1024 x46 +2048 x58 +4096 x70 +8192 x82 +16384 x94 +32768 x106 +65536 x118 +131072 x130 +262144 x142 +524288 x154 +1048576 x166 +1024 x35 +2048 x47 +4096 x59 +8192 x71 +16384 x83 +32768 x95 +65536 x107 +131072 x119 +262144 x131 +524288 x143 +1048576 x155 +2097152 x167 +2048 x36 +4096 x48 +8192 x60 +16384 x72 +32768 x84 +65536 x96 +131072 x108 +262144 x120 +524288 x132 +1048576 x144 +2097152 x156 +4194304 x168 -1 x337 -2 x338 -4 x339 -8 x340 -16 x341 -32 x342 -64 x343 -128 x344 -256 x345 -512 x346 -1024 x347 -2048 x348 -4096 x349 -8192 x350 -16384 x351 -32768 x352 -65536 x353 -131072 x354 -262144 x355 -524288 x356 -1048576 x357 -2097152 x358 -4194304 x359 -8388608 x360 = 0; 
-1 x169 +1 x13 >= 0 ;
-1 x169 +1 x1 >= 0 ;
+1 x169 -1 x13 -1 x1 >= -1 ;
+1 x169 +2 x181 +4 x193 +8 x205 +16 x217 +32 x229 +64 x241 +128 x253 +256 x265 +512 x277 +1024 x289 +2048 x301 +2 x170 +4 x182 +8 x194 +16 x206 +32 x218 +64 x230 +128 x242 +256 x254 +512 x266 +1024 x278 +2048 x290 +4096 x302 +4 x171 +8 x183 +16 x195 +32 x207 +64 x219 +128 x231 +256 x243 +512 x255 +1024 x267 +2048 x279 +4096 x291 +8192 x303 +8 x172 +16 x184 +32 x196 +64 x208 +128 x220 +256 x232 +512 x244 +1024 x256 +2048 x268 +4096 x280 +8192 x292 +16384 x304 +16 x173 +32 x185 +64 x197 +128 x209 +256 x221 +512 x233 +1024 x245 +2048 x257 +4096 x269 +8192 x281 +16384 x293 +32768 x305 +32 x174 +64 x186 +128 x198 +256 x210 +512 x222 +1024 x234 +2048 x246 +4096 x258 +8192 x270 +16384 x282 +32768 x294 +65536 x306 +64 x175 +128 x187 +256 x199 +512 x211 +1024 x223 +2048 x235 +4096 x247 +8192 x259 +16384 x271 +32768 x283 +65536 x295 +131072 x307 +128 x176 +256 x188 +512 x200 +1024 x212 +2048 x224 +4096 x236 +8192 x248 +16384 x260 +32768 x272 +65536 x284 +131072 x296 +262144 x308 +256 x177 +512 x189 +1024 x201 +2048 x213 +4096 x225 +8192 x237 +16384 x249 +32768 x261 +65536 x273 +131072 x285 +262144 x297 +524288 x309 +512 x178 +1024 x190 +2048 x202 +4096 x214 +8192 x226 +16384 x238 +32768 x250 +65536 x262 +131072 x274 +262144 x286 +524288 x298 +1048576 x310 +1024 x179 +2048 x191 +4096 x203 +8192 x215 +16384 x227 +32768 x239 +65536 x251 +131072 x263 +262144 x275 +524288 x287 +1048576 x299 +2097152 x311 +2048 x180 +4096 x192 +8192 x204 +16384 x216 +32768 x228 +65536 x240 +131072 x252 +262144 x264 +524288 x276 +1048576 x288 +2097152 x300 +4194304 x312 -1 x313 -2 x314 -4 x315 -8 x316 -16 x317 -32 x318 -64 x319 -128 x320 -256 x321 -512 x322 -1024 x323 -2048 x324 -4096 x325 -8192 x326 -16384 x327 -32768 x328 -65536 x329 -131072 x330 -262144 x331 -524288 x332 -1048576 x333 -2097152 x334 -4194304 x335 -8388608 x336 = 0; 
+1 x337 -1 x313 +2 x338 -2 x314 +4 x339 -4 x315 +8 x340 -8 x316 +16 x341 -16 x317 +32 x342 -32 x318 +64 x343 -64 x319 +128 x344 -128 x320 +256 x345 -256 x321 +512 x346 -512 x322 +1024 x347 -1024 x323 +2048 x348 -2048 x324 +4096 x349 -4096 x325 +8192 x350 -8192 x326 +16384 x351 -16384 x327 +32768 x352 -32768 x328 +65536 x353 -65536 x329 +131072 x354 -131072 x330 +262144 x355 -262144 x331 +524288 x356 -524288 x332 +1048576 x357 -1048576 x333 +2097152 x358 -2097152 x334 +4194304 x359 -4194304 x335 +8388608 x360 -8388608 x336 >= 1 ;
-1 x37 +1 x2 >= 0 ;
-1 x37 +1 x13 >= 0 ;
+1 x37 -1 x2 -1 x13 >= -1 ;
-1 x26 +1 x1 >= 0 ;
-1 x26 +1 x14 >= 0 ;
+1 x26 -1 x1 -1 x14 >= -1 ;
-1 x181 +1 x14 >= 0 ;
-1 x181 +1 x1 >= 0 ;
+1 x181 -1 x14 -1 x1 >= -1 ;
-1 x170 +1 x13 >= 0 ;
-1 x170 +1 x2 >= 0 ;
+1 x170 -1 x13 -1 x2 >= -1 ;
-1 x49 +1 x3 >= 0 ;
-1 x49 +1 x13 >= 0 ;
+1 x49 -1 x3 -1 x13 >= -1 ;
-1 x38 +1 x2 >= 0 ;
-1 x38 +1 x14 >= 0 ;
+1 x38 -1 x2 -1 x14 >= -1 ;
-1 x27 +1 x1 >= 0 ;
-1 x27 +1 x15 >= 0 ;
+1 x27 -1 x1 -1 x15 >= -1 ;
-1 x193 +1 x15 >= 0 ;
-1 x193 +1 x1 >= 0 ;
+1 x193 -1 x15 -1 x1 >= -1 ;
-1 x182 +1 x14 >= 0 ;
-1 x182 +1 x2 >= 0 ;
+1 x182 -1 x14 -1 x2 >= -1 ;
-1 x171 +1 x13 >= 0 ;
-1 x171 +1 x3 >= 0 ;
+1 x171 -1 x13 -1 x3 >= -1 ;
-1 x61 +1 x4 >= 0 ;
-1 x61 +1 x13 >= 0 ;
+1 x61 -1 x4 -1 x13 >= -1 ;
-1 x50 +1 x3 >= 0 ;
-1 x50 +1 x14 >= 0 ;
+1 x50 -1 x3 -1 x14 >= -1 ;
-1 x39 +1 x2 >= 0 ;
-1 x39 +1 x15 >= 0 ;
+1 x39 -1 x2 -1 x15 >= -1 ;
-1 x28 +1 x1 >= 0 ;
-1 x28 +1 x16 >= 0 ;
+1 x28 -1 x1 -1 x16 >= -1 ;
-1 x205 +1 x16 >= 0 ;
-1 x205 +1 x1 >= 0 ;
+1 x205 -1 x16 -1 x1 >= -1 ;
-1 x194 +1 x15 >= 0 ;
-1 x194 +1 x2 >= 0 ;
+1 x194 -1 x15 -1 x2 >= -1 ;
-1 x183 +1 x14 >= 0 ;
-1 x183 +1 x3 >= 0 ;
+1 x183 -1 x14 -1 x3 >= -1 ;
-1 x172 +1 x13 >= 0 ;
-1 x172 +1 x4 >= 0 ;
+1 x172 -1 x13 -1 x4 >= -1 ;
-1 x73 +1 x5 >= 0 ;
-1 x73 +1 x13 >= 0 ;
+1 x73 -1 x5 -1 x13 >= -1 ;
-1 x62 +1 x4 >= 0 ;
-1 x62 +1 x14 >= 0 ;
+1 x62 -1 x4 -1 x14 >= -1 ;
-1 x51 +1 x3 >= 0 ;
-1 x51 +1 x15 >= 0 ;
+1 x51 -1 x3 -1 x15 >= -1 ;
-1 x40 +1 x2 >= 0 ;
-1 x40 +1 x16 >= 0 ;
+1 x40 -1 x2 -1 x16 >= -1 ;
-1 x29 +1 x1 >= 0 ;
-1 x29 +1 x17 >= 0 ;
+1 x29 -1 x1 -1 x17 >= -1 ;
-1 x217 +1 x17 >= 0 ;
-1 x217 +1 x1 >= 0 ;
+1 x217 -1 x17 -1 x1 >= -1 ;
-1 x206 +1 x16 >= 0 ;
-1 x206 +1 x2 >= 0 ;
+1 x206 -1 x16 -1 x2 >= -1 ;
-1 x195 +1 x15 >= 0 ;
-1 x195 +1 x3 >= 0 ;
+1 x195 -1 x15 -1 x3 >= -1 ;
-1 x184 +1 x14 >= 0 ;
-1 x184 +1 x4 >= 0 ;
+1 x184 -1 x14 -1 x4 >= -1 ;
-1 x173 +1 x13 >= 0 ;
-1 x173 +1 x5 >= 0 ;
+1 x173 -1 x13 -1 x5 >= -1 ;
-1 x85 +1 x6 >= 0 ;
-1 x85 +1 x13 >= 0 ;
+1 x85 -1 x6 -1 x13 >= -1 ;
-1 x74 +1 x5 >= 0 ;
-1 x74 +1 x14 >= 0 ;
+1 x74 -1 x5 -1 x14 >= -1 ;
-1 x63 +1 x4 >= 0 ;
-1 x63 +1 x15 >= 0 ;
+1 x63 -1 x4 -1 x15 >= -1 ;
-1 x52 +1 x3 >= 0 ;
-1 x52 +1 x16 >= 0 ;
+1 x52 -1 x3 -1 x16 >= -1 ;
-1 x41 +1 x2 >= 0 ;
-1 x41 +1 x17 >= 0 ;
+1 x41 -1 x2 -1 x17 >= -1 ;
-1 x30 +1 x1 >= 0 ;
-1 x30 +1 x18 >= 0 ;
+1 x30 -1 x1 -1 x18 >= -1 ;
-1 x229 +1 x18 >= 0 ;
-1 x229 +1 x1 >= 0 ;
+1 x229 -1 x18 -1 x1 >= -1 ;
-1 x218 +1 x17 >= 0 ;
-1 x218 +1 x2 >= 0 ;
+1 x218 -1 x17 -1 x2 >= -1 ;
-1 x207 +1 x16 >= 0 ;
-1 x207 +1 x3 >= 0 ;
+1 x207 -1 x16 -1 x3 >= -1 ;
-1 x196 +1 x15 >= 0 ;
-1 x196 +1 x4 >= 0 ;
+1 x196 -1 x15 -1 x4 >= -1 ;
-1 x185 +1 x14 >= 0 ;
-1 x185 +1 x5 >= 0 ;
+1 x185 -1 x14 -1 x5 >= -1 ;
-1 x174 +1 x13 >= 0 ;
-1 x174 +1 x6 >= 0 ;
+1 x174 -1 x13 -1 x6 >= -1 ;
-1 x97 +1 x7 >= 0 ;
-1 x97 +1 x13 >= 0 ;
+1 x97 -1 x7 -1 x13 >= -1 ;
-1 x86 +1 x6 >= 0 ;
-1 x86 +1 x14 >= 0 ;
+1 x86 -1 x6 -1 x14 >= -1 ;
-1 x75 +1 x5 >= 0 ;
-1 x75 +1 x15 >= 0 ;
+1 x75 -1 x5 -1 x15 >= -1 ;
-1 x64 +1 x4 >= 0 ;
-1 x64 +1 x16 >= 0 ;
+1 x64 -1 x4 -1 x16 >= -1 ;
-1 x53 +1 x3 >= 0 ;
-1 x53 +1 x17 >= 0 ;
+1 x53 -1 x3 -1 x17 >= -1 ;
-1 x42 +1 x2 >= 0 ;
-1 x42 +1 x18 >= 0 ;
+1 x42 -1 x2 -1 x18 >= -1 ;
-1 x31 +1 x1 >= 0 ;
-1 x31 +1 x19 >= 0 ;
+1 x31 -1 x1 -1 x19 >= -1 ;
-1 x241 +1 x19 >= 0 ;
-1 x241 +1 x1 >= 0 ;
+1 x241 -1 x19 -1 x1 >= -1 ;
-1 x230 +1 x18 >= 0 ;
-1 x230 +1 x2 >= 0 ;
+1 x230 -1 x18 -1 x2 >= -1 ;
-1 x219 +1 x17 >= 0 ;
-1 x219 +1 x3 >= 0 ;
+1 x219 -1 x17 -1 x3 >= -1 ;
-1 x208 +1 x16 >= 0 ;
-1 x208 +1 x4 >= 0 ;
+1 x208 -1 x16 -1 x4 >= -1 ;
-1 x197 +1 x15 >= 0 ;
-1 x197 +1 x5 >= 0 ;
+1 x197 -1 x15 -1 x5 >= -1 ;
-1 x186 +1 x14 >= 0 ;
-1 x186 +1 x6 >= 0 ;
+1 x186 -1 x14 -1 x6 >= -1 ;
-1 x175 +1 x13 >= 0 ;
-1 x175 +1 x7 >= 0 ;
+1 x175 -1 x13 -1 x7 >= -1 ;
-1 x109 +1 x8 >= 0 ;
-1 x109 +1 x13 >= 0 ;
+1 x109 -1 x8 -1 x13 >= -1 ;
-1 x98 +1 x7 >= 0 ;
-1 x98 +1 x14 >= 0 ;
+1 x98 -1 x7 -1 x14 >= -1 ;
-1 x87 +1 x6 >= 0 ;
-1 x87 +1 x15 >= 0 ;
+1 x87 -1 x6 -1 x15 >= -1 ;
-1 x76 +1 x5 >= 0 ;
-1 x76 +1 x16 >= 0 ;
+1 x76 -1 x5 -1 x16 >= -1 ;
-1 x65 +1 x4 >= 0 ;
-1 x65 +1 x17 >= 0 ;
+1 x65 -1 x4 -1 x17 >= -1 ;
-1 x54 +1 x3 >= 0 ;
-1 x54 +1 x18 >= 0 ;
+1 x54 -1 x3 -1 x18 >= -1 ;
-1 x43 +1 x2 >= 0 ;
-1 x43 +1 x19 >= 0 ;
+1 x43 -1 x2 -1 x19 >= -1 ;
-1 x32 +1 x1 >= 0 ;
-1 x32 +1 x20 >= 0 ;
+1 x32 -1 x1 -1 x20 >= -1 ;
-1 x253 +1 x20 >= 0 ;
-1 x253 +1 x1 >= 0 ;
+1 x253 -1 x20 -1 x1 >= -1 ;
-1 x242 +1 x19 >= 0 ;
-1 x242 +1 x2 >= 0 ;
+1 x242 -1 x19 -1 x2 >= -1 ;
-1 x231 +1 x18 >= 0 ;
-1 x231 +1 x3 >= 0 ;
+1 x231 -1 x18 -1 x3 >= -1 ;
-1 x220 +1 x17 >= 0 ;
-1 x220 +1 x4 >= 0 ;
+1 x220 -1 x17 -1 x4 >= -1 ;
-1 x209 +1 x16 >= 0 ;
-1 x209 +1 x5 >= 0 ;
+1 x209 -1 x16 -1 x5 >= -1 ;
-1 x198 +1 x15 >= 0 ;
-1 x198 +1 x6 >= 0 ;
+1 x198 -1 x15 -1 x6 >= -1 ;
-1 x187 +1 x14 >= 0 ;
-1 x187 +1 x7 >= 0 ;
+1 x187 -1 x14 -1 x7 >= -1 ;
-1 x176 +1 x13 >= 0 ;
-1 x176 +1 x8 >= 0 ;
+1 x176 -1 x13 -1 x8 >= -1 ;
-1 x121 +1 x9 >= 0 ;
-1 x121 +1 x13 >= 0 ;
+1 x121 -1 x9 -1 x13 >= -1 ;
-1 x110 +1 x8 >= 0 ;
-1 x110 +1 x14 >= 0 ;
+1 x110 -1 x8 -1 x14 >= -1 ;
-1 x99 +1 x7 >= 0 ;
-1 x99 +1 x15 >= 0 ;
+1 x99 -1 x7 -1 x15 >= -1 ;
-1 x88 +1 x6 >= 0 ;
-1 x88 +1 x16 >= 0 ;
+1 x88 -1 x6 -1 x16 >= -1 ;
-1 x77 +1 x5 >= 0 ;
-1 x77 +1 x17 >= 0 ;
+1 x77 -1 x5 -1 x17 >= -1 ;
-1 x66 +1 x4 >= 0 ;
-1 x66 +1 x18 >= 0 ;
+1 x66 -1 x4 -1 x18 >= -1 ;
-1 x55 +1 x3 >= 0 ;
-1 x55 +1 x19 >= 0 ;
+1 x55 -1 x3 -1 x19 >= -1 ;
-1 x44 +1 x2 >= 0 ;
-1 x44 +1 x20 >= 0 ;
+1 x44 -1 x2 -1 x20 >= -1 ;
-1 x33 +1 x1 >= 0 ;
-1 x33 +1 x21 >= 0 ;
+1 x33 -1 x1 -1 x21 >= -1 ;
-1 x265 +1 x21 >= 0 ;
-1 x265 +1 x1 >= 0 ;
+1 x265 -1 x21 -1 x1 >= -1 ;
-1 x254 +1 x20 >= 0 ;
-1 x254 +1 x2 >= 0 ;
+1 x254 -1 x20 -1 x2 >= -1 ;
-1 x243 +1 x19 >= 0 ;
-1 x243 +1 x3 >= 0 ;
+1 x243 -1 x19 -1 x3 >= -1 ;
-1 x232 +1 x18 >= 0 ;
-1 x232 +1 x4 >= 0 ;
+1 x232 -1 x18 -1 x4 >= -1 ;
-1 x221 +1 x17 >= 0 ;
-1 x221 +1 x5 >= 0 ;
+1 x221 -1 x17 -1 x5 >= -1 ;
-1 x210 +1 x16 >= 0 ;
-1 x210 +1 x6 >= 0 ;
+1 x210 -1 x16 -1 x6 >= -1 ;
-1 x199 +1 x15 >= 0 ;
-1 x199 +1 x7 >= 0 ;
+1 x199 -1 x15 -1 x7 >= -1 ;
-1 x188 +1 x14 >= 0 ;
-1 x188 +1 x8 >= 0 ;
+1 x188 -1 x14 -1 x8 >= -1 ;
-1 x177 +1 x13 >= 0 ;
-1 x177 +1 x9 >= 0 ;
+1 x177 -1 x13 -1 x9 >= -1 ;
-1 x133 +1 x10 >= 0 ;
-1 x133 +1 x13 >= 0 ;
+1 x133 -1 x10 -1 x13 >= -1 ;
-1 x122 +1 x9 >= 0 ;
-1 x122 +1 x14 >= 0 ;
+1 x122 -1 x9 -1 x14 >= -1 ;
-1 x111 +1 x8 >= 0 ;
-1 x111 +1 x15 >= 0 ;
+1 x111 -1 x8 -1 x15 >= -1 ;
-1 x100 +1 x7 >= 0 ;
-1 x100 +1 x16 >= 0 ;
+1 x100 -1 x7 -1 x16 >= -1 ;
-1 x89 +1 x6 >= 0 ;
-1 x89 +1 x17 >= 0 ;
+1 x89 -1 x6 -1 x17 >= -1 ;
-1 x78 +1 x5 >= 0 ;
-1 x78 +1 x18 >= 0 ;
+1 x78 -1 x5 -1 x18 >= -1 ;
-1 x67 +1 x4 >= 0 ;
-1 x67 +1 x19 >= 0 ;
+1 x67 -1 x4 -1 x19 >= -1 ;
-1 x56 +1 x3 >= 0 ;
-1 x56 +1 x20 >= 0 ;
+1 x56 -1 x3 -1 x20 >= -1 ;
-1 x45 +1 x2 >= 0 ;
-1 x45 +1 x21 >= 0 ;
+1 x45 -1 x2 -1 x21 >= -1 ;
-1 x34 +1 x1 >= 0 ;
-1 x34 +1 x22 >= 0 ;
+1 x34 -1 x1 -1 x22 >= -1 ;
-1 x277 +1 x22 >= 0 ;
-1 x277 +1 x1 >= 0 ;
+1 x277 -1 x22 -1 x1 >= -1 ;
-1 x266 +1 x21 >= 0 ;
-1 x266 +1 x2 >= 0 ;
+1 x266 -1 x21 -1 x2 >= -1 ;
-1 x255 +1 x20 >= 0 ;
-1 x255 +1 x3 >= 0 ;
+1 x255 -1 x20 -1 x3 >= -1 ;
-1 x244 +1 x19 >= 0 ;
-1 x244 +1 x4 >= 0 ;
+1 x244 -1 x19 -1 x4 >= -1 ;
-1 x233 +1 x18 >= 0 ;
-1 x233 +1 x5 >= 0 ;
+1 x233 -1 x18 -1 x5 >= -1 ;
-1 x222 +1 x17 >= 0 ;
-1 x222 +1 x6 >= 0 ;
+1 x222 -1 x17 -1 x6 >= -1 ;
-1 x211 +1 x16 >= 0 ;
-1 x211 +1 x7 >= 0 ;
+1 x211 -1 x16 -1 x7 >= -1 ;
-1 x200 +1 x15 >= 0 ;
-1 x200 +1 x8 >= 0 ;
+1 x200 -1 x15 -1 x8 >= -1 ;
-1 x189 +1 x14 >= 0 ;
-1 x189 +1 x9 >= 0 ;
+1 x189 -1 x14 -1 x9 >= -1 ;
-1 x178 +1 x13 >= 0 ;
-1 x178 +1 x10 >= 0 ;
+1 x178 -1 x13 -1 x10 >= -1 ;
-1 x145 +1 x11 >= 0 ;
-1 x145 +1 x13 >= 0 ;
+1 x145 -1 x11 -1 x13 >= -1 ;
-1 x134 +1 x10 >= 0 ;
-1 x134 +1 x14 >= 0 ;
+1 x134 -1 x10 -1 x14 >= -1 ;
-1 x123 +1 x9 >= 0 ;
-1 x123 +1 x15 >= 0 ;
+1 x123 -1 x9 -1 x15 >= -1 ;
-1 x112 +1 x8 >= 0 ;
-1 x112 +1 x16 >= 0 ;
+1 x112 -1 x8 -1 x16 >= -1 ;
-1 x101 +1 x7 >= 0 ;
-1 x101 +1 x17 >= 0 ;
+1 x101 -1 x7 -1 x17 >= -1 ;
-1 x90 +1 x6 >= 0 ;
-1 x90 +1 x18 >= 0 ;
+1 x90 -1 x6 -1 x18 >= -1 ;
-1 x79 +1 x5 >= 0 ;
-1 x79 +1 x19 >= 0 ;
+1 x79 -1 x5 -1 x19 >= -1 ;
-1 x68 +1 x4 >= 0 ;
-1 x68 +1 x20 >= 0 ;
+1 x68 -1 x4 -1 x20 >= -1 ;
-1 x57 +1 x3 >= 0 ;
-1 x57 +1 x21 >= 0 ;
+1 x57 -1 x3 -1 x21 >= -1 ;
-1 x46 +1 x2 >= 0 ;
-1 x46 +1 x22 >= 0 ;
+1 x46 -1 x2 -1 x22 >= -1 ;
-1 x35 +1 x1 >= 0 ;
-1 x35 +1 x23 >= 0 ;
+1 x35 -1 x1 -1 x23 >= -1 ;
-1 x289 +1 x23 >= 0 ;
-1 x289 +1 x1 >= 0 ;
+1 x289 -1 x23 -1 x1 >= -1 ;
-1 x278 +1 x22 >= 0 ;
-1 x278 +1 x2 >= 0 ;
+1 x278 -1 x22 -1 x2 >= -1 ;
-1 x267 +1 x21 >= 0 ;
-1 x267 +1 x3 >= 0 ;
+1 x267 -1 x21 -1 x3 >= -1 ;
-1 x256 +1 x20 >= 0 ;
-1 x256 +1 x4 >= 0 ;
+1 x256 -1 x20 -1 x4 >= -1 ;
-1 x245 +1 x19 >= 0 ;
-1 x245 +1 x5 >= 0 ;
+1 x245 -1 x19 -1 x5 >= -1 ;
-1 x234 +1 x18 >= 0 ;
-1 x234 +1 x6 >= 0 ;
+1 x234 -1 x18 -1 x6 >= -1 ;
-1 x223 +1 x17 >= 0 ;
-1 x223 +1 x7 >= 0 ;
+1 x223 -1 x17 -1 x7 >= -1 ;
-1 x212 +1 x16 >= 0 ;
-1 x212 +1 x8 >= 0 ;
+1 x212 -1 x16 -1 x8 >= -1 ;
-1 x201 +1 x15 >= 0 ;
-1 x201 +1 x9 >= 0 ;
+1 x201 -1 x15 -1 x9 >= -1 ;
-1 x190 +1 x14 >= 0 ;
-1 x190 +1 x10 >= 0 ;
+1 x190 -1 x14 -1 x10 >= -1 ;
-1 x179 +1 x13 >= 0 ;
-1 x179 +1 x11 >= 0 ;
+1 x179 -1 x13 -1 x11 >= -1 ;
-1 x157 +1 x12 >= 0 ;
-1 x157 +1 x13 >= 0 ;
+1 x157 -1 x12 -1 x13 >= -1 ;
-1 x146 +1 x11 >= 0 ;
-1 x146 +1 x14 >= 0 ;
+1 x146 -1 x11 -1 x14 >= -1 ;
-1 x135 +1 x10 >= 0 ;
-1 x135 +1 x15 >= 0 ;
+1 x135 -1 x10 -1 x15 >= -1 ;
-1 x124 +1 x9 >= 0 ;
-1 x124 +1 x16 >= 0 ;
+1 x124 -1 x9 -1 x16 >= -1 ;
-1 x113 +1 x8 >= 0 ;
-1 x113 +1 x17 >= 0 ;
+1 x113 -1 x8 -1 x17 >= -1 ;
-1 x102 +1 x7 >= 0 ;
-1 x102 +1 x18 >= 0 ;
+1 x102 -1 x7 -1 x18 >= -1 ;
-1 x91 +1 x6 >= 0 ;
-1 x91 +1 x19 >= 0 ;
+1 x91 -1 x6 -1 x19 >= -1 ;
-1 x80 +1 x5 >= 0 ;
-1 x80 +1 x20 >= 0 ;
+1 x80 -1 x5 -1 x20 >= -1 ;
-1 x69 +1 x4 >= 0 ;
-1 x69 +1 x21 >= 0 ;
+1 x69 -1 x4 -1 x21 >= -1 ;
-1 x58 +1 x3 >= 0 ;
-1 x58 +1 x22 >= 0 ;
+1 x58 -1 x3 -1 x22 >= -1 ;
-1 x47 +1 x2 >= 0 ;
-1 x47 +1 x23 >= 0 ;
+1 x47 -1 x2 -1 x23 >= -1 ;
-1 x36 +1 x1 >= 0 ;
-1 x36 +1 x24 >= 0 ;
+1 x36 -1 x1 -1 x24 >= -1 ;
-1 x301 +1 x24 >= 0 ;
-1 x301 +1 x1 >= 0 ;
+1 x301 -1 x24 -1 x1 >= -1 ;
-1 x290 +1 x23 >= 0 ;
-1 x290 +1 x2 >= 0 ;
+1 x290 -1 x23 -1 x2 >= -1 ;
-1 x279 +1 x22 >= 0 ;
-1 x279 +1 x3 >= 0 ;
+1 x279 -1 x22 -1 x3 >= -1 ;
-1 x268 +1 x21 >= 0 ;
-1 x268 +1 x4 >= 0 ;
+1 x268 -1 x21 -1 x4 >= -1 ;
-1 x257 +1 x20 >= 0 ;
-1 x257 +1 x5 >= 0 ;
+1 x257 -1 x20 -1 x5 >= -1 ;
-1 x246 +1 x19 >= 0 ;
-1 x246 +1 x6 >= 0 ;
+1 x246 -1 x19 -1 x6 >= -1 ;
-1 x235 +1 x18 >= 0 ;
-1 x235 +1 x7 >= 0 ;
+1 x235 -1 x18 -1 x7 >= -1 ;
-1 x224 +1 x17 >= 0 ;
-1 x224 +1 x8 >= 0 ;
+1 x224 -1 x17 -1 x8 >= -1 ;
-1 x213 +1 x16 >= 0 ;
-1 x213 +1 x9 >= 0 ;
+1 x213 -1 x16 -1 x9 >= -1 ;
-1 x202 +1 x15 >= 0 ;
-1 x202 +1 x10 >= 0 ;
+1 x202 -1 x15 -1 x10 >= -1 ;
-1 x191 +1 x14 >= 0 ;
-1 x191 +1 x11 >= 0 ;
+1 x191 -1 x14 -1 x11 >= -1 ;
-1 x180 +1 x13 >= 0 ;
-1 x180 +1 x12 >= 0 ;
+1 x180 -1 x13 -1 x12 >= -1 ;
-1 x158 +1 x12 >= 0 ;
-1 x158 +1 x14 >= 0 ;
+1 x158 -1 x12 -1 x14 >= -1 ;
-1 x147 +1 x11 >= 0 ;
-1 x147 +1 x15 >= 0 ;
+1 x147 -1 x11 -1 x15 >= -1 ;
-1 x136 +1 x10 >= 0 ;
-1 x136 +1 x16 >= 0 ;
+1 x136 -1 x10 -1 x16 >= -1 ;
-1 x125 +1 x9 >= 0 ;
-1 x125 +1 x17 >= 0 ;
+1 x125 -1 x9 -1 x17 >= -1 ;
-1 x114 +1 x8 >= 0 ;
-1 x114 +1 x18 >= 0 ;
+1 x114 -1 x8 -1 x18 >= -1 ;
-1 x103 +1 x7 >= 0 ;
-1 x103 +1 x19 >= 0 ;
+1 x103 -1 x7 -1 x19 >= -1 ;
-1 x92 +1 x6 >= 0 ;
-1 x92 +1 x20 >= 0 ;
+1 x92 -1 x6 -1 x20 >= -1 ;
-1 x81 +1 x5 >= 0 ;
-1 x81 +1 x21 >= 0 ;
+1 x81 -1 x5 -1 x21 >= -1 ;
-1 x70 +1 x4 >= 0 ;
-1 x70 +1 x22 >= 0 ;
+1 x70 -1 x4 -1 x22 >= -1 ;
-1 x59 +1 x3 >= 0 ;
-1 x59 +1 x23 >= 0 ;
+1 x59 -1 x3 -1 x23 >= -1 ;
-1 x48 +1 x2 >= 0 ;
-1 x48 +1 x24 >= 0 ;
+1 x48 -1 x2 -1 x24 >= -1 ;
-1 x302 +1 x24 >= 0 ;
-1 x302 +1 x2 >= 0 ;
+1 x302 -1 x24 -1 x2 >= -1 ;
-1 x291 +1 x23 >= 0 ;
-1 x291 +1 x3 >= 0 ;
+1 x291 -1 x23 -1 x3 >= -1 ;
-1 x280 +1 x22 >= 0 ;
-1 x280 +1 x4 >= 0 ;
+1 x280 -1 x22 -1 x4 >= -1 ;
-1 x269 +1 x21 >= 0 ;
-1 x269 +1 x5 >= 0 ;
+1 x269 -1 x21 -1 x5 >= -1 ;
-1 x258 +1 x20 >= 0 ;
-1 x258 +1 x6 >= 0 ;
+1 x258 -1 x20 -1 x6 >= -1 ;
-1 x247 +1 x19 >= 0 ;
-1 x247 +1 x7 >= 0 ;
+1 x247 -1 x19 -1 x7 >= -1 ;
-1 x236 +1 x18 >= 0 ;
-1 x236 +1 x8 >= 0 ;
+1 x236 -1 x18 -1 x8 >= -1 ;
-1 x225 +1 x17 >= 0 ;
-1 x225 +1 x9 >= 0 ;
+1 x225 -1 x17 -1 x9 >= -1 ;
-1 x214 +1 x16 >= 0 ;
-1 x214 +1 x10 >= 0 ;
+1 x214 -1 x16 -1 x10 >= -1 ;
-1 x203 +1 x15 >= 0 ;
-1 x203 +1 x11 >= 0 ;
+1 x203 -1 x15 -1 x11 >= -1 ;
-1 x192 +1 x14 >= 0 ;
-1 x192 +1 x12 >= 0 ;
+1 x192 -1 x14 -1 x12 >= -1 ;
-1 x159 +1 x12 >= 0 ;
-1 x159 +1 x15 >= 0 ;
+1 x159 -1 x12 -1 x15 >= -1 ;
-1 x148 +1 x11 >= 0 ;
-1 x148 +1 x16 >= 0 ;
+1 x148 -1 x11 -1 x16 >= -1 ;
-1 x137 +1 x10 >= 0 ;
-1 x137 +1 x17 >= 0 ;
+1 x137 -1 x10 -1 x17 >= -1 ;
-1 x126 +1 x9 >= 0 ;
-1 x126 +1 x18 >= 0 ;
+1 x126 -1 x9 -1 x18 >= -1 ;
-1 x115 +1 x8 >= 0 ;
-1 x115 +1 x19 >= 0 ;
+1 x115 -1 x8 -1 x19 >= -1 ;
-1 x104 +1 x7 >= 0 ;
-1 x104 +1 x20 >= 0 ;
+1 x104 -1 x7 -1 x20 >= -1 ;
-1 x93 +1 x6 >= 0 ;
-1 x93 +1 x21 >= 0 ;
+1 x93 -1 x6 -1 x21 >= -1 ;
-1 x82 +1 x5 >= 0 ;
-1 x82 +1 x22 >= 0 ;
+1 x82 -1 x5 -1 x22 >= -1 ;
-1 x71 +1 x4 >= 0 ;
-1 x71 +1 x23 >= 0 ;
+1 x71 -1 x4 -1 x23 >= -1 ;
-1 x60 +1 x3 >= 0 ;
-1 x60 +1 x24 >= 0 ;
+1 x60 -1 x3 -1 x24 >= -1 ;
-1 x303 +1 x24 >= 0 ;
-1 x303 +1 x3 >= 0 ;
+1 x303 -1 x24 -1 x3 >= -1 ;
-1 x292 +1 x23 >= 0 ;
-1 x292 +1 x4 >= 0 ;
+1 x292 -1 x23 -1 x4 >= -1 ;
-1 x281 +1 x22 >= 0 ;
-1 x281 +1 x5 >= 0 ;
+1 x281 -1 x22 -1 x5 >= -1 ;
-1 x270 +1 x21 >= 0 ;
-1 x270 +1 x6 >= 0 ;
+1 x270 -1 x21 -1 x6 >= -1 ;
-1 x259 +1 x20 >= 0 ;
-1 x259 +1 x7 >= 0 ;
+1 x259 -1 x20 -1 x7 >= -1 ;
-1 x248 +1 x19 >= 0 ;
-1 x248 +1 x8 >= 0 ;
+1 x248 -1 x19 -1 x8 >= -1 ;
-1 x237 +1 x18 >= 0 ;
-1 x237 +1 x9 >= 0 ;
+1 x237 -1 x18 -1 x9 >= -1 ;
-1 x226 +1 x17 >= 0 ;
-1 x226 +1 x10 >= 0 ;
+1 x226 -1 x17 -1 x10 >= -1 ;
-1 x215 +1 x16 >= 0 ;
-1 x215 +1 x11 >= 0 ;
+1 x215 -1 x16 -1 x11 >= -1 ;
-1 x204 +1 x15 >= 0 ;
-1 x204 +1 x12 >= 0 ;
+1 x204 -1 x15 -1 x12 >= -1 ;
-1 x160 +1 x12 >= 0 ;
-1 x160 +1 x16 >= 0 ;
+1 x160 -1 x12 -1 x16 >= -1 ;
-1 x149 +1 x11 >= 0 ;
-1 x149 +1 x17 >= 0 ;
+1 x149 -1 x11 -1 x17 >= -1 ;
-1 x138 +1 x10 >= 0 ;
-1 x138 +1 x18 >= 0 ;
+1 x138 -1 x10 -1 x18 >= -1 ;
-1 x127 +1 x9 >= 0 ;
-1 x127 +1 x19 >= 0 ;
+1 x127 -1 x9 -1 x19 >= -1 ;
-1 x116 +1 x8 >= 0 ;
-1 x116 +1 x20 >= 0 ;
+1 x116 -1 x8 -1 x20 >= -1 ;
-1 x105 +1 x7 >= 0 ;
-1 x105 +1 x21 >= 0 ;
+1 x105 -1 x7 -1 x21 >= -1 ;
-1 x94 +1 x6 >= 0 ;
-1 x94 +1 x22 >= 0 ;
+1 x94 -1 x6 -1 x22 >= -1 ;
-1 x83 +1 x5 >= 0 ;
-1 x83 +1 x23 >= 0 ;
+1 x83 -1 x5 -1 x23 >= -1 ;
-1 x72 +1 x4 >= 0 ;
-1 x72 +1 x24 >= 0 ;
+1 x72 -1 x4 -1 x24 >= -1 ;
-1 x304 +1 x24 >= 0 ;
-1 x304 +1 x4 >= 0 ;
+1 x304 -1 x24 -1 x4 >= -1 ;
-1 x293 +1 x23 >= 0 ;
-1 x293 +1 x5 >= 0 ;
+1 x293 -1 x23 -1 x5 >= -1 ;
-1 x282 +1 x22 >= 0 ;
-1 x282 +1 x6 >= 0 ;
+1 x282 -1 x22 -1 x6 >= -1 ;
-1 x271 +1 x21 >= 0 ;
-1 x271 +1 x7 >= 0 ;
+1 x271 -1 x21 -1 x7 >= -1 ;
-1 x260 +1 x20 >= 0 ;
-1 x260 +1 x8 >= 0 ;
+1 x260 -1 x20 -1 x8 >= -1 ;
-1 x249 +1 x19 >= 0 ;
-1 x249 +1 x9 >= 0 ;
+1 x249 -1 x19 -1 x9 >= -1 ;
-1 x238 +1 x18 >= 0 ;
-1 x238 +1 x10 >= 0 ;
+1 x238 -1 x18 -1 x10 >= -1 ;
-1 x227 +1 x17 >= 0 ;
-1 x227 +1 x11 >= 0 ;
+1 x227 -1 x17 -1 x11 >= -1 ;
-1 x216 +1 x16 >= 0 ;
-1 x216 +1 x12 >= 0 ;
+1 x216 -1 x16 -1 x12 >= -1 ;
-1 x161 +1 x12 >= 0 ;
-1 x161 +1 x17 >= 0 ;
+1 x161 -1 x12 -1 x17 >= -1 ;
-1 x150 +1 x11 >= 0 ;
-1 x150 +1 x18 >= 0 ;
+1 x150 -1 x11 -1 x18 >= -1 ;
-1 x139 +1 x10 >= 0 ;
-1 x139 +1 x19 >= 0 ;
+1 x139 -1 x10 -1 x19 >= -1 ;
-1 x128 +1 x9 >= 0 ;
-1 x128 +1 x20 >= 0 ;
+1 x128 -1 x9 -1 x20 >= -1 ;
-1 x117 +1 x8 >= 0 ;
-1 x117 +1 x21 >= 0 ;
+1 x117 -1 x8 -1 x21 >= -1 ;
-1 x106 +1 x7 >= 0 ;
-1 x106 +1 x22 >= 0 ;
+1 x106 -1 x7 -1 x22 >= -1 ;
-1 x95 +1 x6 >= 0 ;
-1 x95 +1 x23 >= 0 ;
+1 x95 -1 x6 -1 x23 >= -1 ;
-1 x84 +1 x5 >= 0 ;
-1 x84 +1 x24 >= 0 ;
+1 x84 -1 x5 -1 x24 >= -1 ;
-1 x305 +1 x24 >= 0 ;
-1 x305 +1 x5 >= 0 ;
+1 x305 -1 x24 -1 x5 >= -1 ;
-1 x294 +1 x23 >= 0 ;
-1 x294 +1 x6 >= 0 ;
+1 x294 -1 x23 -1 x6 >= -1 ;
-1 x283 +1 x22 >= 0 ;
-1 x283 +1 x7 >= 0 ;
+1 x283 -1 x22 -1 x7 >= -1 ;
-1 x272 +1 x21 >= 0 ;
-1 x272 +1 x8 >= 0 ;
+1 x272 -1 x21 -1 x8 >= -1 ;
-1 x261 +1 x20 >= 0 ;
-1 x261 +1 x9 >= 0 ;
+1 x261 -1 x20 -1 x9 >= -1 ;
-1 x250 +1 x19 >= 0 ;
-1 x250 +1 x10 >= 0 ;
+1 x250 -1 x19 -1 x10 >= -1 ;
-1 x239 +1 x18 >= 0 ;
-1 x239 +1 x11 >= 0 ;
+1 x239 -1 x18 -1 x11 >= -1 ;
-1 x228 +1 x17 >= 0 ;
-1 x228 +1 x12 >= 0 ;
+1 x228 -1 x17 -1 x12 >= -1 ;
-1 x162 +1 x12 >= 0 ;
-1 x162 +1 x18 >= 0 ;
+1 x162 -1 x12 -1 x18 >= -1 ;
-1 x151 +1 x11 >= 0 ;
-1 x151 +1 x19 >= 0 ;
+1 x151 -1 x11 -1 x19 >= -1 ;
-1 x140 +1 x10 >= 0 ;
-1 x140 +1 x20 >= 0 ;
+1 x140 -1 x10 -1 x20 >= -1 ;
-1 x129 +1 x9 >= 0 ;
-1 x129 +1 x21 >= 0 ;
+1 x129 -1 x9 -1 x21 >= -1 ;
-1 x118 +1 x8 >= 0 ;
-1 x118 +1 x22 >= 0 ;
+1 x118 -1 x8 -1 x22 >= -1 ;
-1 x107 +1 x7 >= 0 ;
-1 x107 +1 x23 >= 0 ;
+1 x107 -1 x7 -1 x23 >= -1 ;
-1 x96 +1 x6 >= 0 ;
-1 x96 +1 x24 >= 0 ;
+1 x96 -1 x6 -1 x24 >= -1 ;
-1 x306 +1 x24 >= 0 ;
-1 x306 +1 x6 >= 0 ;
+1 x306 -1 x24 -1 x6 >= -1 ;
-1 x295 +1 x23 >= 0 ;
-1 x295 +1 x7 >= 0 ;
+1 x295 -1 x23 -1 x7 >= -1 ;
-1 x284 +1 x22 >= 0 ;
-1 x284 +1 x8 >= 0 ;
+1 x284 -1 x22 -1 x8 >= -1 ;
-1 x273 +1 x21 >= 0 ;
-1 x273 +1 x9 >= 0 ;
+1 x273 -1 x21 -1 x9 >= -1 ;
-1 x262 +1 x20 >= 0 ;
-1 x262 +1 x10 >= 0 ;
+1 x262 -1 x20 -1 x10 >= -1 ;
-1 x251 +1 x19 >= 0 ;
-1 x251 +1 x11 >= 0 ;
+1 x251 -1 x19 -1 x11 >= -1 ;
-1 x240 +1 x18 >= 0 ;
-1 x240 +1 x12 >= 0 ;
+1 x240 -1 x18 -1 x12 >= -1 ;
-1 x163 +1 x12 >= 0 ;
-1 x163 +1 x19 >= 0 ;
+1 x163 -1 x12 -1 x19 >= -1 ;
-1 x152 +1 x11 >= 0 ;
-1 x152 +1 x20 >= 0 ;
+1 x152 -1 x11 -1 x20 >= -1 ;
-1 x141 +1 x10 >= 0 ;
-1 x141 +1 x21 >= 0 ;
+1 x141 -1 x10 -1 x21 >= -1 ;
-1 x130 +1 x9 >= 0 ;
-1 x130 +1 x22 >= 0 ;
+1 x130 -1 x9 -1 x22 >= -1 ;
-1 x119 +1 x8 >= 0 ;
-1 x119 +1 x23 >= 0 ;
+1 x119 -1 x8 -1 x23 >= -1 ;
-1 x108 +1 x7 >= 0 ;
-1 x108 +1 x24 >= 0 ;
+1 x108 -1 x7 -1 x24 >= -1 ;
-1 x307 +1 x24 >= 0 ;
-1 x307 +1 x7 >= 0 ;
+1 x307 -1 x24 -1 x7 >= -1 ;
-1 x296 +1 x23 >= 0 ;
-1 x296 +1 x8 >= 0 ;
+1 x296 -1 x23 -1 x8 >= -1 ;
-1 x285 +1 x22 >= 0 ;
-1 x285 +1 x9 >= 0 ;
+1 x285 -1 x22 -1 x9 >= -1 ;
-1 x274 +1 x21 >= 0 ;
-1 x274 +1 x10 >= 0 ;
+1 x274 -1 x21 -1 x10 >= -1 ;
-1 x263 +1 x20 >= 0 ;
-1 x263 +1 x11 >= 0 ;
+1 x263 -1 x20 -1 x11 >= -1 ;
-1 x252 +1 x19 >= 0 ;
-1 x252 +1 x12 >= 0 ;
+1 x252 -1 x19 -1 x12 >= -1 ;
-1 x164 +1 x12 >= 0 ;
-1 x164 +1 x20 >= 0 ;
+1 x164 -1 x12 -1 x20 >= -1 ;
-1 x153 +1 x11 >= 0 ;
-1 x153 +1 x21 >= 0 ;
+1 x153 -1 x11 -1 x21 >= -1 ;
-1 x142 +1 x10 >= 0 ;
-1 x142 +1 x22 >= 0 ;
+1 x142 -1 x10 -1 x22 >= -1 ;
-1 x131 +1 x9 >= 0 ;
-1 x131 +1 x23 >= 0 ;
+1 x131 -1 x9 -1 x23 >= -1 ;
-1 x120 +1 x8 >= 0 ;
-1 x120 +1 x24 >= 0 ;
+1 x120 -1 x8 -1 x24 >= -1 ;
-1 x308 +1 x24 >= 0 ;
-1 x308 +1 x8 >= 0 ;
+1 x308 -1 x24 -1 x8 >= -1 ;
-1 x297 +1 x23 >= 0 ;
-1 x297 +1 x9 >= 0 ;
+1 x297 -1 x23 -1 x9 >= -1 ;
-1 x286 +1 x22 >= 0 ;
-1 x286 +1 x10 >= 0 ;
+1 x286 -1 x22 -1 x10 >= -1 ;
-1 x275 +1 x21 >= 0 ;
-1 x275 +1 x11 >= 0 ;
+1 x275 -1 x21 -1 x11 >= -1 ;
-1 x264 +1 x20 >= 0 ;
-1 x264 +1 x12 >= 0 ;
+1 x264 -1 x20 -1 x12 >= -1 ;
-1 x165 +1 x12 >= 0 ;
-1 x165 +1 x21 >= 0 ;
+1 x165 -1 x12 -1 x21 >= -1 ;
-1 x154 +1 x11 >= 0 ;
-1 x154 +1 x22 >= 0 ;
+1 x154 -1 x11 -1 x22 >= -1 ;
-1 x143 +1 x10 >= 0 ;
-1 x143 +1 x23 >= 0 ;
+1 x143 -1 x10 -1 x23 >= -1 ;
-1 x132 +1 x9 >= 0 ;
-1 x132 +1 x24 >= 0 ;
+1 x132 -1 x9 -1 x24 >= -1 ;
-1 x309 +1 x24 >= 0 ;
-1 x309 +1 x9 >= 0 ;
+1 x309 -1 x24 -1 x9 >= -1 ;
-1 x298 +1 x23 >= 0 ;
-1 x298 +1 x10 >= 0 ;
+1 x298 -1 x23 -1 x10 >= -1 ;
-1 x287 +1 x22 >= 0 ;
-1 x287 +1 x11 >= 0 ;
+1 x287 -1 x22 -1 x11 >= -1 ;
-1 x276 +1 x21 >= 0 ;
-1 x276 +1 x12 >= 0 ;
+1 x276 -1 x21 -1 x12 >= -1 ;
-1 x166 +1 x12 >= 0 ;
-1 x166 +1 x22 >= 0 ;
+1 x166 -1 x12 -1 x22 >= -1 ;
-1 x155 +1 x11 >= 0 ;
-1 x155 +1 x23 >= 0 ;
+1 x155 -1 x11 -1 x23 >= -1 ;
-1 x144 +1 x10 >= 0 ;
-1 x144 +1 x24 >= 0 ;
+1 x144 -1 x10 -1 x24 >= -1 ;
-1 x310 +1 x24 >= 0 ;
-1 x310 +1 x10 >= 0 ;
+1 x310 -1 x24 -1 x10 >= -1 ;
-1 x299 +1 x23 >= 0 ;
-1 x299 +1 x11 >= 0 ;
+1 x299 -1 x23 -1 x11 >= -1 ;
-1 x288 +1 x22 >= 0 ;
-1 x288 +1 x12 >= 0 ;
+1 x288 -1 x22 -1 x12 >= -1 ;
-1 x167 +1 x12 >= 0 ;
-1 x167 +1 x23 >= 0 ;
+1 x167 -1 x12 -1 x23 >= -1 ;
-1 x156 +1 x11 >= 0 ;
-1 x156 +1 x24 >= 0 ;
+1 x156 -1 x11 -1 x24 >= -1 ;
-1 x311 +1 x24 >= 0 ;
-1 x311 +1 x11 >= 0 ;
+1 x311 -1 x24 -1 x11 >= -1 ;
-1 x300 +1 x23 >= 0 ;
-1 x300 +1 x12 >= 0 ;
+1 x300 -1 x23 -1 x12 >= -1 ;
-1 x168 +1 x12 >= 0 ;
-1 x168 +1 x24 >= 0 ;
+1 x168 -1 x12 -1 x24 >= -1 ;
-1 x312 +1 x24 >= 0 ;
-1 x312 +1 x12 >= 0 ;
+1 x312 -1 x24 -1 x12 >= -1 ;
